c Random 3-CNF over 30 variables and 60 clauses
c Generated with `cnfgen`
c (C) 2012-2016 Massimo Lauria <lauria.massimo@gmail.com>
c https://massimolauria.github.io/cnfgen
c
c COMMAND LINE: cnfgen --output tmp-3-30-60.dimacs --output-format dimacs randkcnf 3 30 60
c
c sdimacs generated by gen-sdimacs
c
p cnf 30 60
r 0.5 1 2 3 4 5 6 7 8 9 10 11 12 13 14 15 0
e  16 17 18 19 20 21 22 23 24 25 26 27 28 29 30 0
2 -28 -29 0
7 12 -14 0
2 23 24 0
2 15 20 0
-2 4 15 0
11 18 19 0
3 28 -29 0
15 -16 30 0
-7 -21 -23 0
19 25 28 0
1 17 19 0
18 -21 -29 0
-15 17 -24 0
-1 2 14 0
-2 23 25 0
17 -22 -25 0
8 -14 26 0
-8 13 -24 0
4 -14 -19 0
10 26 -29 0
-2 20 28 0
17 -26 27 0
6 15 18 0
1 6 11 0
-5 18 -26 0
3 -26 -29 0
4 -8 30 0
4 -11 -24 0
-1 -7 22 0
1 9 24 0
3 10 17 0
-12 -19 22 0
3 -10 22 0
-6 13 -22 0
-4 -22 -26 0
4 23 24 0
15 23 30 0
-15 -17 30 0
-4 -28 -29 0
14 15 -29 0
-3 6 19 0
1 11 -15 0
-22 24 -25 0
-3 27 30 0
7 -12 15 0
4 18 28 0
-5 22 -27 0
2 -18 29 0
3 -9 -12 0
8 -17 25 0
5 -10 17 0
-2 -5 -14 0
5 -17 -25 0
10 18 25 0
11 14 -25 0
-20 -22 27 0
-2 -3 4 0
-19 22 -26 0
20 -24 25 0
3 -12 14 0
